language Essence 1.3

letting bot_end be [1, 855, 19, 0, 712, 614, 256, 100, 829, 144, 752, 272; int(1..12)]
letting bot_start be [696, 236, 573, 558, 115, 49, 841, 714, 272, 737, 41, 858; int(1..12)]
letting buffer_col be 2
letting buffer_row be 2
letting corridor_size be 1
letting n_shelves_col be 2
letting n_shelves_row be 41
letting shelf_col_size be 2
letting shelf_row_size be 1
